NAME : portcgen-24-27
COMMENT : portcgen N=24, seed=27
TYPE : TSP
DIMENSION : 24
EDGE_WEIGHT_TYPE : EUC_2D
NODE_COORD_SECTION
1 -7555 394057
2 17616 -70120
3 -48731 234439
4 124857 204647
5 -59383 118326
6 -17162 -98379
7 -259846 118798
8 -36921 224056
9 72391 128365
10 -15859 107113
11 -188597 -268997
12 -268525 -273830
13 40779 -51902
14 48837 -223340
15 -117675 117051
16 209552 -124447
17 270266 162636
18 205708 -176411
19 70928 256383
20 -266905 218922
21 48539 314860
22 -2850 474854
23 -141014 -168364
24 -7920 385881
